(set-logic QF_S)
(declare-fun var_0xINPUT_142380 () String)
(assert (and (= (len var_0xINPUT_142380) 0) (= (len var_0xINPUT_142380) 0) (not (= var_0xINPUT_142380 "Example:")) (not (= var_0xINPUT_142380 "CQALcCP5TB"))))
(check-sat var_0xINPUT_142380)